(set-info :category "industrial")
(set-info :status sat)
(declare-fun x01 () (_ BitVec 8))
(declare-fun x02 () (_ BitVec 8))
(declare-fun x04 () (_ BitVec 8))
(declare-fun x08 () (_ BitVec 8))
(declare-fun x11 () (_ BitVec 8))
(declare-fun x13 () (_ BitVec 8))
(declare-fun x16 () (_ BitVec 8))
(declare-fun x18 () (_ BitVec 8))
(declare-fun x20 () (_ BitVec 8))
(declare-fun x21 () (_ BitVec 8))
(declare-fun x22 () (_ BitVec 8))
(declare-fun x24 () (_ BitVec 8))
(declare-fun x25 () (_ BitVec 8))
(declare-fun x26 () (_ BitVec 8))
(declare-fun x32 () (_ BitVec 8))
(declare-fun x33 () (_ BitVec 8))
(declare-fun x35 () (_ BitVec 8))
(declare-fun x37 () (_ BitVec 8))
(declare-fun x38 () (_ BitVec 8))
(declare-fun x41 () (_ BitVec 8))
(declare-fun x45 () (_ BitVec 8))
(declare-fun x46 () (_ BitVec 8))
(declare-fun x47 () (_ BitVec 8))
(declare-fun x48 () (_ BitVec 8))
(declare-fun x52 () (_ BitVec 8))
(declare-fun x53 () (_ BitVec 8))
(declare-fun x54 () (_ BitVec 8))
(declare-fun x58 () (_ BitVec 8))
(declare-fun x60 () (_ BitVec 8))
(declare-fun x61 () (_ BitVec 8))
(declare-fun x63 () (_ BitVec 8))
(declare-fun x64 () (_ BitVec 8))
(declare-fun x66 () (_ BitVec 8))
(declare-fun x67 () (_ BitVec 8))
(declare-fun x70 () (_ BitVec 8))
(declare-fun x71 () (_ BitVec 8))
(declare-fun x72 () (_ BitVec 8))
(declare-fun x73 () (_ BitVec 8))
(declare-fun x74 () (_ BitVec 8))
(declare-fun x75 () (_ BitVec 8))
(declare-fun x80 () (_ BitVec 8))
(declare-fun x83 () (_ BitVec 8))
(declare-fun x84 () (_ BitVec 8))
(declare-fun x85 () (_ BitVec 8))
(declare-fun x86 () (_ BitVec 8))
(declare-fun x87 () (_ BitVec 8))
(declare-fun x88 () (_ BitVec 8))
(assert (bvult x01 (_ bv9 8)))
(assert (bvult x02 (_ bv9 8)))
(assert (bvult x04 (_ bv9 8)))
(assert (bvult x08 (_ bv9 8)))
(assert (bvult x11 (_ bv9 8)))
(assert (bvult x13 (_ bv9 8)))
(assert (bvult x16 (_ bv9 8)))
(assert (bvult x18 (_ bv9 8)))
(assert (bvult x20 (_ bv9 8)))
(assert (bvult x21 (_ bv9 8)))
(assert (bvult x22 (_ bv9 8)))
(assert (bvult x24 (_ bv9 8)))
(assert (bvult x25 (_ bv9 8)))
(assert (bvult x26 (_ bv9 8)))
(assert (bvult x32 (_ bv9 8)))
(assert (bvult x33 (_ bv9 8)))
(assert (bvult x35 (_ bv9 8)))
(assert (bvult x37 (_ bv9 8)))
(assert (bvult x38 (_ bv9 8)))
(assert (bvult x41 (_ bv9 8)))
(assert (bvult x45 (_ bv9 8)))
(assert (bvult x46 (_ bv9 8)))
(assert (bvult x47 (_ bv9 8)))
(assert (bvult x48 (_ bv9 8)))
(assert (bvult x52 (_ bv9 8)))
(assert (bvult x53 (_ bv9 8)))
(assert (bvult x54 (_ bv9 8)))
(assert (bvult x58 (_ bv9 8)))
(assert (bvult x60 (_ bv9 8)))
(assert (bvult x61 (_ bv9 8)))
(assert (bvult x63 (_ bv9 8)))
(assert (bvult x64 (_ bv9 8)))
(assert (bvult x66 (_ bv9 8)))
(assert (bvult x67 (_ bv9 8)))
(assert (bvult x70 (_ bv9 8)))
(assert (bvult x71 (_ bv9 8)))
(assert (bvult x72 (_ bv9 8)))
(assert (bvult x73 (_ bv9 8)))
(assert (bvult x74 (_ bv9 8)))
(assert (bvult x75 (_ bv9 8)))
(assert (bvult x80 (_ bv9 8)))
(assert (bvult x83 (_ bv9 8)))
(assert (bvult x84 (_ bv9 8)))
(assert (bvult x85 (_ bv9 8)))
(assert (bvult x86 (_ bv9 8)))
(assert (bvult x87 (_ bv9 8)))
(assert (bvult x88 (_ bv9 8)))
(assert (not (= (_ bv1 8) x01)))
(assert (not (= (_ bv1 8) x02)))
(assert (not (= (_ bv1 8) (_ bv7 8))))
(assert (not (= (_ bv1 8) x04)))
(assert (not (= (_ bv1 8) (_ bv6 8))))
(assert (not (= (_ bv1 8) (_ bv2 8))))
(assert (not (= (_ bv1 8) (_ bv4 8))))
(assert (not (= (_ bv1 8) x08)))
(assert (not (= x01 x02)))
(assert (not (= x01 (_ bv7 8))))
(assert (not (= x01 x04)))
(assert (not (= x01 (_ bv6 8))))
(assert (not (= x01 (_ bv2 8))))
(assert (not (= x01 (_ bv4 8))))
(assert (not (= x01 x08)))
(assert (not (= x02 (_ bv7 8))))
(assert (not (= x02 x04)))
(assert (not (= x02 (_ bv6 8))))
(assert (not (= x02 (_ bv2 8))))
(assert (not (= x02 (_ bv4 8))))
(assert (not (= x02 x08)))
(assert (not (= (_ bv7 8) x04)))
(assert (not (= (_ bv7 8) (_ bv6 8))))
(assert (not (= (_ bv7 8) (_ bv2 8))))
(assert (not (= (_ bv7 8) (_ bv4 8))))
(assert (not (= (_ bv7 8) x08)))
(assert (not (= x04 (_ bv6 8))))
(assert (not (= x04 (_ bv2 8))))
(assert (not (= x04 (_ bv4 8))))
(assert (not (= x04 x08)))
(assert (not (= (_ bv6 8) (_ bv2 8))))
(assert (not (= (_ bv6 8) (_ bv4 8))))
(assert (not (= (_ bv6 8) x08)))
(assert (not (= (_ bv2 8) (_ bv4 8))))
(assert (not (= (_ bv2 8) x08)))
(assert (not (= (_ bv4 8) x08)))
(assert (not (= (_ bv4 8) x11)))
(assert (not (= (_ bv4 8) (_ bv8 8))))
(assert (not (= (_ bv4 8) x13)))
(assert (not (= (_ bv4 8) (_ bv5 8))))
(assert (not (= (_ bv4 8) (_ bv9 8))))
(assert (not (= (_ bv4 8) x16)))
(assert (not (= (_ bv4 8) (_ bv3 8))))
(assert (not (= (_ bv4 8) x18)))
(assert (not (= x11 (_ bv8 8))))
(assert (not (= x11 x13)))
(assert (not (= x11 (_ bv5 8))))
(assert (not (= x11 (_ bv9 8))))
(assert (not (= x11 x16)))
(assert (not (= x11 (_ bv3 8))))
(assert (not (= x11 x18)))
(assert (not (= (_ bv8 8) x13)))
(assert (not (= (_ bv8 8) (_ bv5 8))))
(assert (not (= (_ bv8 8) (_ bv9 8))))
(assert (not (= (_ bv8 8) x16)))
(assert (not (= (_ bv8 8) (_ bv3 8))))
(assert (not (= (_ bv8 8) x18)))
(assert (not (= x13 (_ bv5 8))))
(assert (not (= x13 (_ bv9 8))))
(assert (not (= x13 x16)))
(assert (not (= x13 (_ bv3 8))))
(assert (not (= x13 x18)))
(assert (not (= (_ bv5 8) (_ bv9 8))))
(assert (not (= (_ bv5 8) x16)))
(assert (not (= (_ bv5 8) (_ bv3 8))))
(assert (not (= (_ bv5 8) x18)))
(assert (not (= (_ bv9 8) x16)))
(assert (not (= (_ bv9 8) (_ bv3 8))))
(assert (not (= (_ bv9 8) x18)))
(assert (not (= x16 (_ bv3 8))))
(assert (not (= x16 x18)))
(assert (not (= (_ bv3 8) x18)))
(assert (not (= x20 x21)))
(assert (not (= x20 x22)))
(assert (not (= x20 (_ bv2 8))))
(assert (not (= x20 x24)))
(assert (not (= x20 x25)))
(assert (not (= x20 x26)))
(assert (not (= x20 (_ bv1 8))))
(assert (not (= x20 (_ bv8 8))))
(assert (not (= x21 x22)))
(assert (not (= x21 (_ bv2 8))))
(assert (not (= x21 x24)))
(assert (not (= x21 x25)))
(assert (not (= x21 x26)))
(assert (not (= x21 (_ bv1 8))))
(assert (not (= x21 (_ bv8 8))))
(assert (not (= x22 (_ bv2 8))))
(assert (not (= x22 x24)))
(assert (not (= x22 x25)))
(assert (not (= x22 x26)))
(assert (not (= x22 (_ bv1 8))))
(assert (not (= x22 (_ bv8 8))))
(assert (not (= (_ bv2 8) x24)))
(assert (not (= (_ bv2 8) x25)))
(assert (not (= (_ bv2 8) x26)))
(assert (not (= (_ bv2 8) (_ bv1 8))))
(assert (not (= (_ bv2 8) (_ bv8 8))))
(assert (not (= x24 x25)))
(assert (not (= x24 x26)))
(assert (not (= x24 (_ bv1 8))))
(assert (not (= x24 (_ bv8 8))))
(assert (not (= x25 x26)))
(assert (not (= x25 (_ bv1 8))))
(assert (not (= x25 (_ bv8 8))))
(assert (not (= x26 (_ bv1 8))))
(assert (not (= x26 (_ bv8 8))))
(assert (not (= (_ bv1 8) (_ bv8 8))))
(assert (not (= (_ bv6 8) (_ bv1 8))))
(assert (not (= (_ bv6 8) x32)))
(assert (not (= (_ bv6 8) x33)))
(assert (not (= (_ bv6 8) (_ bv3 8))))
(assert (not (= (_ bv6 8) x35)))
(assert (not (= (_ bv6 8) (_ bv7 8))))
(assert (not (= (_ bv6 8) x37)))
(assert (not (= (_ bv6 8) x38)))
(assert (not (= (_ bv1 8) x32)))
(assert (not (= (_ bv1 8) x33)))
(assert (not (= (_ bv1 8) (_ bv3 8))))
(assert (not (= (_ bv1 8) x35)))
(assert (not (= (_ bv1 8) (_ bv7 8))))
(assert (not (= (_ bv1 8) x37)))
(assert (not (= (_ bv1 8) x38)))
(assert (not (= x32 x33)))
(assert (not (= x32 (_ bv3 8))))
(assert (not (= x32 x35)))
(assert (not (= x32 (_ bv7 8))))
(assert (not (= x32 x37)))
(assert (not (= x32 x38)))
(assert (not (= x33 (_ bv3 8))))
(assert (not (= x33 x35)))
(assert (not (= x33 (_ bv7 8))))
(assert (not (= x33 x37)))
(assert (not (= x33 x38)))
(assert (not (= (_ bv3 8) x35)))
(assert (not (= (_ bv3 8) (_ bv7 8))))
(assert (not (= (_ bv3 8) x37)))
(assert (not (= (_ bv3 8) x38)))
(assert (not (= x35 (_ bv7 8))))
(assert (not (= x35 x37)))
(assert (not (= x35 x38)))
(assert (not (= (_ bv7 8) x37)))
(assert (not (= (_ bv7 8) x38)))
(assert (not (= x37 x38)))
(assert (not (= (_ bv9 8) x41)))
(assert (not (= (_ bv9 8) (_ bv5 8))))
(assert (not (= (_ bv9 8) (_ bv6 8))))
(assert (not (= (_ bv9 8) (_ bv2 8))))
(assert (not (= (_ bv9 8) x45)))
(assert (not (= (_ bv9 8) x46)))
(assert (not (= (_ bv9 8) x47)))
(assert (not (= (_ bv9 8) x48)))
(assert (not (= x41 (_ bv5 8))))
(assert (not (= x41 (_ bv6 8))))
(assert (not (= x41 (_ bv2 8))))
(assert (not (= x41 x45)))
(assert (not (= x41 x46)))
(assert (not (= x41 x47)))
(assert (not (= x41 x48)))
(assert (not (= (_ bv5 8) (_ bv6 8))))
(assert (not (= (_ bv5 8) (_ bv2 8))))
(assert (not (= (_ bv5 8) x45)))
(assert (not (= (_ bv5 8) x46)))
(assert (not (= (_ bv5 8) x47)))
(assert (not (= (_ bv5 8) x48)))
(assert (not (= (_ bv6 8) (_ bv2 8))))
(assert (not (= (_ bv6 8) x45)))
(assert (not (= (_ bv6 8) x46)))
(assert (not (= (_ bv6 8) x47)))
(assert (not (= (_ bv6 8) x48)))
(assert (not (= (_ bv2 8) x45)))
(assert (not (= (_ bv2 8) x46)))
(assert (not (= (_ bv2 8) x47)))
(assert (not (= (_ bv2 8) x48)))
(assert (not (= x45 x46)))
(assert (not (= x45 x47)))
(assert (not (= x45 x48)))
(assert (not (= x46 x47)))
(assert (not (= x46 x48)))
(assert (not (= x47 x48)))
(assert (not (= (_ bv3 8) (_ bv8 8))))
(assert (not (= (_ bv3 8) x52)))
(assert (not (= (_ bv3 8) x53)))
(assert (not (= (_ bv3 8) x54)))
(assert (not (= (_ bv3 8) (_ bv4 8))))
(assert (not (= (_ bv3 8) (_ bv1 8))))
(assert (not (= (_ bv3 8) (_ bv5 8))))
(assert (not (= (_ bv3 8) x58)))
(assert (not (= (_ bv8 8) x52)))
(assert (not (= (_ bv8 8) x53)))
(assert (not (= (_ bv8 8) x54)))
(assert (not (= (_ bv8 8) (_ bv4 8))))
(assert (not (= (_ bv8 8) (_ bv1 8))))
(assert (not (= (_ bv8 8) (_ bv5 8))))
(assert (not (= (_ bv8 8) x58)))
(assert (not (= x52 x53)))
(assert (not (= x52 x54)))
(assert (not (= x52 (_ bv4 8))))
(assert (not (= x52 (_ bv1 8))))
(assert (not (= x52 (_ bv5 8))))
(assert (not (= x52 x58)))
(assert (not (= x53 x54)))
(assert (not (= x53 (_ bv4 8))))
(assert (not (= x53 (_ bv1 8))))
(assert (not (= x53 (_ bv5 8))))
(assert (not (= x53 x58)))
(assert (not (= x54 (_ bv4 8))))
(assert (not (= x54 (_ bv1 8))))
(assert (not (= x54 (_ bv5 8))))
(assert (not (= x54 x58)))
(assert (not (= (_ bv4 8) (_ bv1 8))))
(assert (not (= (_ bv4 8) (_ bv5 8))))
(assert (not (= (_ bv4 8) x58)))
(assert (not (= (_ bv1 8) (_ bv5 8))))
(assert (not (= (_ bv1 8) x58)))
(assert (not (= (_ bv5 8) x58)))
(assert (not (= x60 x61)))
(assert (not (= x60 (_ bv9 8))))
(assert (not (= x60 x63)))
(assert (not (= x60 x64)))
(assert (not (= x60 (_ bv8 8))))
(assert (not (= x60 x66)))
(assert (not (= x60 x67)))
(assert (not (= x60 (_ bv4 8))))
(assert (not (= x61 (_ bv9 8))))
(assert (not (= x61 x63)))
(assert (not (= x61 x64)))
(assert (not (= x61 (_ bv8 8))))
(assert (not (= x61 x66)))
(assert (not (= x61 x67)))
(assert (not (= x61 (_ bv4 8))))
(assert (not (= (_ bv9 8) x63)))
(assert (not (= (_ bv9 8) x64)))
(assert (not (= (_ bv9 8) (_ bv8 8))))
(assert (not (= (_ bv9 8) x66)))
(assert (not (= (_ bv9 8) x67)))
(assert (not (= (_ bv9 8) (_ bv4 8))))
(assert (not (= x63 x64)))
(assert (not (= x63 (_ bv8 8))))
(assert (not (= x63 x66)))
(assert (not (= x63 x67)))
(assert (not (= x63 (_ bv4 8))))
(assert (not (= x64 (_ bv8 8))))
(assert (not (= x64 x66)))
(assert (not (= x64 x67)))
(assert (not (= x64 (_ bv4 8))))
(assert (not (= (_ bv8 8) x66)))
(assert (not (= (_ bv8 8) x67)))
(assert (not (= (_ bv8 8) (_ bv4 8))))
(assert (not (= x66 x67)))
(assert (not (= x66 (_ bv4 8))))
(assert (not (= x67 (_ bv4 8))))
(assert (not (= x70 x71)))
(assert (not (= x70 x72)))
(assert (not (= x70 x73)))
(assert (not (= x70 x74)))
(assert (not (= x70 x75)))
(assert (not (= x70 (_ bv5 8))))
(assert (not (= x70 (_ bv2 8))))
(assert (not (= x70 (_ bv9 8))))
(assert (not (= x71 x72)))
(assert (not (= x71 x73)))
(assert (not (= x71 x74)))
(assert (not (= x71 x75)))
(assert (not (= x71 (_ bv5 8))))
(assert (not (= x71 (_ bv2 8))))
(assert (not (= x71 (_ bv9 8))))
(assert (not (= x72 x73)))
(assert (not (= x72 x74)))
(assert (not (= x72 x75)))
(assert (not (= x72 (_ bv5 8))))
(assert (not (= x72 (_ bv2 8))))
(assert (not (= x72 (_ bv9 8))))
(assert (not (= x73 x74)))
(assert (not (= x73 x75)))
(assert (not (= x73 (_ bv5 8))))
(assert (not (= x73 (_ bv2 8))))
(assert (not (= x73 (_ bv9 8))))
(assert (not (= x74 x75)))
(assert (not (= x74 (_ bv5 8))))
(assert (not (= x74 (_ bv2 8))))
(assert (not (= x74 (_ bv9 8))))
(assert (not (= x75 (_ bv5 8))))
(assert (not (= x75 (_ bv2 8))))
(assert (not (= x75 (_ bv9 8))))
(assert (not (= (_ bv5 8) (_ bv2 8))))
(assert (not (= (_ bv5 8) (_ bv9 8))))
(assert (not (= (_ bv2 8) (_ bv9 8))))
(assert (not (= x80 (_ bv3 8))))
(assert (not (= x80 (_ bv7 8))))
(assert (not (= x80 x83)))
(assert (not (= x80 x84)))
(assert (not (= x80 x85)))
(assert (not (= x80 x86)))
(assert (not (= x80 x87)))
(assert (not (= x80 x88)))
(assert (not (= (_ bv3 8) (_ bv7 8))))
(assert (not (= (_ bv3 8) x83)))
(assert (not (= (_ bv3 8) x84)))
(assert (not (= (_ bv3 8) x85)))
(assert (not (= (_ bv3 8) x86)))
(assert (not (= (_ bv3 8) x87)))
(assert (not (= (_ bv3 8) x88)))
(assert (not (= (_ bv7 8) x83)))
(assert (not (= (_ bv7 8) x84)))
(assert (not (= (_ bv7 8) x85)))
(assert (not (= (_ bv7 8) x86)))
(assert (not (= (_ bv7 8) x87)))
(assert (not (= (_ bv7 8) x88)))
(assert (not (= x83 x84)))
(assert (not (= x83 x85)))
(assert (not (= x83 x86)))
(assert (not (= x83 x87)))
(assert (not (= x83 x88)))
(assert (not (= x84 x85)))
(assert (not (= x84 x86)))
(assert (not (= x84 x87)))
(assert (not (= x84 x88)))
(assert (not (= x85 x86)))
(assert (not (= x85 x87)))
(assert (not (= x85 x88)))
(assert (not (= x86 x87)))
(assert (not (= x86 x88)))
(assert (not (= x87 x88)))
(assert (not (= (_ bv1 8) (_ bv4 8))))
(assert (not (= (_ bv1 8) x20)))
(assert (not (= (_ bv1 8) (_ bv6 8))))
(assert (not (= (_ bv1 8) (_ bv9 8))))
(assert (not (= (_ bv1 8) (_ bv3 8))))
(assert (not (= (_ bv1 8) x60)))
(assert (not (= (_ bv1 8) x70)))
(assert (not (= (_ bv1 8) x80)))
(assert (not (= (_ bv4 8) x20)))
(assert (not (= (_ bv4 8) (_ bv6 8))))
(assert (not (= (_ bv4 8) (_ bv9 8))))
(assert (not (= (_ bv4 8) (_ bv3 8))))
(assert (not (= (_ bv4 8) x60)))
(assert (not (= (_ bv4 8) x70)))
(assert (not (= (_ bv4 8) x80)))
(assert (not (= x20 (_ bv6 8))))
(assert (not (= x20 (_ bv9 8))))
(assert (not (= x20 (_ bv3 8))))
(assert (not (= x20 x60)))
(assert (not (= x20 x70)))
(assert (not (= x20 x80)))
(assert (not (= (_ bv6 8) (_ bv9 8))))
(assert (not (= (_ bv6 8) (_ bv3 8))))
(assert (not (= (_ bv6 8) x60)))
(assert (not (= (_ bv6 8) x70)))
(assert (not (= (_ bv6 8) x80)))
(assert (not (= (_ bv9 8) (_ bv3 8))))
(assert (not (= (_ bv9 8) x60)))
(assert (not (= (_ bv9 8) x70)))
(assert (not (= (_ bv9 8) x80)))
(assert (not (= (_ bv3 8) x60)))
(assert (not (= (_ bv3 8) x70)))
(assert (not (= (_ bv3 8) x80)))
(assert (not (= x60 x70)))
(assert (not (= x60 x80)))
(assert (not (= x70 x80)))
(assert (not (= x01 x11)))
(assert (not (= x01 x21)))
(assert (not (= x01 (_ bv1 8))))
(assert (not (= x01 x41)))
(assert (not (= x01 (_ bv8 8))))
(assert (not (= x01 x61)))
(assert (not (= x01 x71)))
(assert (not (= x01 (_ bv3 8))))
(assert (not (= x11 x21)))
(assert (not (= x11 (_ bv1 8))))
(assert (not (= x11 x41)))
(assert (not (= x11 (_ bv8 8))))
(assert (not (= x11 x61)))
(assert (not (= x11 x71)))
(assert (not (= x11 (_ bv3 8))))
(assert (not (= x21 (_ bv1 8))))
(assert (not (= x21 x41)))
(assert (not (= x21 (_ bv8 8))))
(assert (not (= x21 x61)))
(assert (not (= x21 x71)))
(assert (not (= x21 (_ bv3 8))))
(assert (not (= (_ bv1 8) x41)))
(assert (not (= (_ bv1 8) (_ bv8 8))))
(assert (not (= (_ bv1 8) x61)))
(assert (not (= (_ bv1 8) x71)))
(assert (not (= (_ bv1 8) (_ bv3 8))))
(assert (not (= x41 (_ bv8 8))))
(assert (not (= x41 x61)))
(assert (not (= x41 x71)))
(assert (not (= x41 (_ bv3 8))))
(assert (not (= (_ bv8 8) x61)))
(assert (not (= (_ bv8 8) x71)))
(assert (not (= (_ bv8 8) (_ bv3 8))))
(assert (not (= x61 x71)))
(assert (not (= x61 (_ bv3 8))))
(assert (not (= x71 (_ bv3 8))))
(assert (not (= x02 (_ bv8 8))))
(assert (not (= x02 x22)))
(assert (not (= x02 x32)))
(assert (not (= x02 (_ bv5 8))))
(assert (not (= x02 x52)))
(assert (not (= x02 (_ bv9 8))))
(assert (not (= x02 x72)))
(assert (not (= x02 (_ bv7 8))))
(assert (not (= (_ bv8 8) x22)))
(assert (not (= (_ bv8 8) x32)))
(assert (not (= (_ bv8 8) (_ bv5 8))))
(assert (not (= (_ bv8 8) x52)))
(assert (not (= (_ bv8 8) (_ bv9 8))))
(assert (not (= (_ bv8 8) x72)))
(assert (not (= (_ bv8 8) (_ bv7 8))))
(assert (not (= x22 x32)))
(assert (not (= x22 (_ bv5 8))))
(assert (not (= x22 x52)))
(assert (not (= x22 (_ bv9 8))))
(assert (not (= x22 x72)))
(assert (not (= x22 (_ bv7 8))))
(assert (not (= x32 (_ bv5 8))))
(assert (not (= x32 x52)))
(assert (not (= x32 (_ bv9 8))))
(assert (not (= x32 x72)))
(assert (not (= x32 (_ bv7 8))))
(assert (not (= (_ bv5 8) x52)))
(assert (not (= (_ bv5 8) (_ bv9 8))))
(assert (not (= (_ bv5 8) x72)))
(assert (not (= (_ bv5 8) (_ bv7 8))))
(assert (not (= x52 (_ bv9 8))))
(assert (not (= x52 x72)))
(assert (not (= x52 (_ bv7 8))))
(assert (not (= (_ bv9 8) x72)))
(assert (not (= (_ bv9 8) (_ bv7 8))))
(assert (not (= x72 (_ bv7 8))))
(assert (not (= (_ bv7 8) x13)))
(assert (not (= (_ bv7 8) (_ bv2 8))))
(assert (not (= (_ bv7 8) x33)))
(assert (not (= (_ bv7 8) (_ bv6 8))))
(assert (not (= (_ bv7 8) x53)))
(assert (not (= (_ bv7 8) x63)))
(assert (not (= (_ bv7 8) x73)))
(assert (not (= (_ bv7 8) x83)))
(assert (not (= x13 (_ bv2 8))))
(assert (not (= x13 x33)))
(assert (not (= x13 (_ bv6 8))))
(assert (not (= x13 x53)))
(assert (not (= x13 x63)))
(assert (not (= x13 x73)))
(assert (not (= x13 x83)))
(assert (not (= (_ bv2 8) x33)))
(assert (not (= (_ bv2 8) (_ bv6 8))))
(assert (not (= (_ bv2 8) x53)))
(assert (not (= (_ bv2 8) x63)))
(assert (not (= (_ bv2 8) x73)))
(assert (not (= (_ bv2 8) x83)))
(assert (not (= x33 (_ bv6 8))))
(assert (not (= x33 x53)))
(assert (not (= x33 x63)))
(assert (not (= x33 x73)))
(assert (not (= x33 x83)))
(assert (not (= (_ bv6 8) x53)))
(assert (not (= (_ bv6 8) x63)))
(assert (not (= (_ bv6 8) x73)))
(assert (not (= (_ bv6 8) x83)))
(assert (not (= x53 x63)))
(assert (not (= x53 x73)))
(assert (not (= x53 x83)))
(assert (not (= x63 x73)))
(assert (not (= x63 x83)))
(assert (not (= x73 x83)))
(assert (not (= x04 (_ bv5 8))))
(assert (not (= x04 x24)))
(assert (not (= x04 (_ bv3 8))))
(assert (not (= x04 (_ bv2 8))))
(assert (not (= x04 x54)))
(assert (not (= x04 x64)))
(assert (not (= x04 x74)))
(assert (not (= x04 x84)))
(assert (not (= (_ bv5 8) x24)))
(assert (not (= (_ bv5 8) (_ bv3 8))))
(assert (not (= (_ bv5 8) (_ bv2 8))))
(assert (not (= (_ bv5 8) x54)))
(assert (not (= (_ bv5 8) x64)))
(assert (not (= (_ bv5 8) x74)))
(assert (not (= (_ bv5 8) x84)))
(assert (not (= x24 (_ bv3 8))))
(assert (not (= x24 (_ bv2 8))))
(assert (not (= x24 x54)))
(assert (not (= x24 x64)))
(assert (not (= x24 x74)))
(assert (not (= x24 x84)))
(assert (not (= (_ bv3 8) (_ bv2 8))))
(assert (not (= (_ bv3 8) x54)))
(assert (not (= (_ bv3 8) x64)))
(assert (not (= (_ bv3 8) x74)))
(assert (not (= (_ bv3 8) x84)))
(assert (not (= (_ bv2 8) x54)))
(assert (not (= (_ bv2 8) x64)))
(assert (not (= (_ bv2 8) x74)))
(assert (not (= (_ bv2 8) x84)))
(assert (not (= x54 x64)))
(assert (not (= x54 x74)))
(assert (not (= x54 x84)))
(assert (not (= x64 x74)))
(assert (not (= x64 x84)))
(assert (not (= x74 x84)))
(assert (not (= (_ bv6 8) (_ bv9 8))))
(assert (not (= (_ bv6 8) x25)))
(assert (not (= (_ bv6 8) x35)))
(assert (not (= (_ bv6 8) x45)))
(assert (not (= (_ bv6 8) (_ bv4 8))))
(assert (not (= (_ bv6 8) (_ bv8 8))))
(assert (not (= (_ bv6 8) x75)))
(assert (not (= (_ bv6 8) x85)))
(assert (not (= (_ bv9 8) x25)))
(assert (not (= (_ bv9 8) x35)))
(assert (not (= (_ bv9 8) x45)))
(assert (not (= (_ bv9 8) (_ bv4 8))))
(assert (not (= (_ bv9 8) (_ bv8 8))))
(assert (not (= (_ bv9 8) x75)))
(assert (not (= (_ bv9 8) x85)))
(assert (not (= x25 x35)))
(assert (not (= x25 x45)))
(assert (not (= x25 (_ bv4 8))))
(assert (not (= x25 (_ bv8 8))))
(assert (not (= x25 x75)))
(assert (not (= x25 x85)))
(assert (not (= x35 x45)))
(assert (not (= x35 (_ bv4 8))))
(assert (not (= x35 (_ bv8 8))))
(assert (not (= x35 x75)))
(assert (not (= x35 x85)))
(assert (not (= x45 (_ bv4 8))))
(assert (not (= x45 (_ bv8 8))))
(assert (not (= x45 x75)))
(assert (not (= x45 x85)))
(assert (not (= (_ bv4 8) (_ bv8 8))))
(assert (not (= (_ bv4 8) x75)))
(assert (not (= (_ bv4 8) x85)))
(assert (not (= (_ bv8 8) x75)))
(assert (not (= (_ bv8 8) x85)))
(assert (not (= x75 x85)))
(assert (not (= (_ bv2 8) x16)))
(assert (not (= (_ bv2 8) x26)))
(assert (not (= (_ bv2 8) (_ bv7 8))))
(assert (not (= (_ bv2 8) x46)))
(assert (not (= (_ bv2 8) (_ bv1 8))))
(assert (not (= (_ bv2 8) x66)))
(assert (not (= (_ bv2 8) (_ bv5 8))))
(assert (not (= (_ bv2 8) x86)))
(assert (not (= x16 x26)))
(assert (not (= x16 (_ bv7 8))))
(assert (not (= x16 x46)))
(assert (not (= x16 (_ bv1 8))))
(assert (not (= x16 x66)))
(assert (not (= x16 (_ bv5 8))))
(assert (not (= x16 x86)))
(assert (not (= x26 (_ bv7 8))))
(assert (not (= x26 x46)))
(assert (not (= x26 (_ bv1 8))))
(assert (not (= x26 x66)))
(assert (not (= x26 (_ bv5 8))))
(assert (not (= x26 x86)))
(assert (not (= (_ bv7 8) x46)))
(assert (not (= (_ bv7 8) (_ bv1 8))))
(assert (not (= (_ bv7 8) x66)))
(assert (not (= (_ bv7 8) (_ bv5 8))))
(assert (not (= (_ bv7 8) x86)))
(assert (not (= x46 (_ bv1 8))))
(assert (not (= x46 x66)))
(assert (not (= x46 (_ bv5 8))))
(assert (not (= x46 x86)))
(assert (not (= (_ bv1 8) x66)))
(assert (not (= (_ bv1 8) (_ bv5 8))))
(assert (not (= (_ bv1 8) x86)))
(assert (not (= x66 (_ bv5 8))))
(assert (not (= x66 x86)))
(assert (not (= (_ bv5 8) x86)))
(assert (not (= (_ bv4 8) (_ bv3 8))))
(assert (not (= (_ bv4 8) (_ bv1 8))))
(assert (not (= (_ bv4 8) x37)))
(assert (not (= (_ bv4 8) x47)))
(assert (not (= (_ bv4 8) (_ bv5 8))))
(assert (not (= (_ bv4 8) x67)))
(assert (not (= (_ bv4 8) (_ bv2 8))))
(assert (not (= (_ bv4 8) x87)))
(assert (not (= (_ bv3 8) (_ bv1 8))))
(assert (not (= (_ bv3 8) x37)))
(assert (not (= (_ bv3 8) x47)))
(assert (not (= (_ bv3 8) (_ bv5 8))))
(assert (not (= (_ bv3 8) x67)))
(assert (not (= (_ bv3 8) (_ bv2 8))))
(assert (not (= (_ bv3 8) x87)))
(assert (not (= (_ bv1 8) x37)))
(assert (not (= (_ bv1 8) x47)))
(assert (not (= (_ bv1 8) (_ bv5 8))))
(assert (not (= (_ bv1 8) x67)))
(assert (not (= (_ bv1 8) (_ bv2 8))))
(assert (not (= (_ bv1 8) x87)))
(assert (not (= x37 x47)))
(assert (not (= x37 (_ bv5 8))))
(assert (not (= x37 x67)))
(assert (not (= x37 (_ bv2 8))))
(assert (not (= x37 x87)))
(assert (not (= x47 (_ bv5 8))))
(assert (not (= x47 x67)))
(assert (not (= x47 (_ bv2 8))))
(assert (not (= x47 x87)))
(assert (not (= (_ bv5 8) x67)))
(assert (not (= (_ bv5 8) (_ bv2 8))))
(assert (not (= (_ bv5 8) x87)))
(assert (not (= x67 (_ bv2 8))))
(assert (not (= x67 x87)))
(assert (not (= (_ bv2 8) x87)))
(assert (not (= x08 x18)))
(assert (not (= x08 (_ bv8 8))))
(assert (not (= x08 x38)))
(assert (not (= x08 x48)))
(assert (not (= x08 x58)))
(assert (not (= x08 (_ bv4 8))))
(assert (not (= x08 (_ bv9 8))))
(assert (not (= x08 x88)))
(assert (not (= x18 (_ bv8 8))))
(assert (not (= x18 x38)))
(assert (not (= x18 x48)))
(assert (not (= x18 x58)))
(assert (not (= x18 (_ bv4 8))))
(assert (not (= x18 (_ bv9 8))))
(assert (not (= x18 x88)))
(assert (not (= (_ bv8 8) x38)))
(assert (not (= (_ bv8 8) x48)))
(assert (not (= (_ bv8 8) x58)))
(assert (not (= (_ bv8 8) (_ bv4 8))))
(assert (not (= (_ bv8 8) (_ bv9 8))))
(assert (not (= (_ bv8 8) x88)))
(assert (not (= x38 x48)))
(assert (not (= x38 x58)))
(assert (not (= x38 (_ bv4 8))))
(assert (not (= x38 (_ bv9 8))))
(assert (not (= x38 x88)))
(assert (not (= x48 x58)))
(assert (not (= x48 (_ bv4 8))))
(assert (not (= x48 (_ bv9 8))))
(assert (not (= x48 x88)))
(assert (not (= x58 (_ bv4 8))))
(assert (not (= x58 (_ bv9 8))))
(assert (not (= x58 x88)))
(assert (not (= (_ bv4 8) (_ bv9 8))))
(assert (not (= (_ bv4 8) x88)))
(assert (not (= (_ bv9 8) x88)))
(assert (not (= (_ bv1 8) x01)))
(assert (not (= (_ bv1 8) x02)))
(assert (not (= (_ bv1 8) (_ bv4 8))))
(assert (not (= (_ bv1 8) x11)))
(assert (not (= (_ bv1 8) (_ bv8 8))))
(assert (not (= (_ bv1 8) x20)))
(assert (not (= (_ bv1 8) x21)))
(assert (not (= (_ bv1 8) x22)))
(assert (not (= x01 x02)))
(assert (not (= x01 (_ bv4 8))))
(assert (not (= x01 x11)))
(assert (not (= x01 (_ bv8 8))))
(assert (not (= x01 x20)))
(assert (not (= x01 x21)))
(assert (not (= x01 x22)))
(assert (not (= x02 (_ bv4 8))))
(assert (not (= x02 x11)))
(assert (not (= x02 (_ bv8 8))))
(assert (not (= x02 x20)))
(assert (not (= x02 x21)))
(assert (not (= x02 x22)))
(assert (not (= (_ bv4 8) x11)))
(assert (not (= (_ bv4 8) (_ bv8 8))))
(assert (not (= (_ bv4 8) x20)))
(assert (not (= (_ bv4 8) x21)))
(assert (not (= (_ bv4 8) x22)))
(assert (not (= x11 (_ bv8 8))))
(assert (not (= x11 x20)))
(assert (not (= x11 x21)))
(assert (not (= x11 x22)))
(assert (not (= (_ bv8 8) x20)))
(assert (not (= (_ bv8 8) x21)))
(assert (not (= (_ bv8 8) x22)))
(assert (not (= x20 x21)))
(assert (not (= x20 x22)))
(assert (not (= x21 x22)))
(assert (not (= (_ bv7 8) x04)))
(assert (not (= (_ bv7 8) (_ bv6 8))))
(assert (not (= (_ bv7 8) x13)))
(assert (not (= (_ bv7 8) (_ bv5 8))))
(assert (not (= (_ bv7 8) (_ bv9 8))))
(assert (not (= (_ bv7 8) (_ bv2 8))))
(assert (not (= (_ bv7 8) x24)))
(assert (not (= (_ bv7 8) x25)))
(assert (not (= x04 (_ bv6 8))))
(assert (not (= x04 x13)))
(assert (not (= x04 (_ bv5 8))))
(assert (not (= x04 (_ bv9 8))))
(assert (not (= x04 (_ bv2 8))))
(assert (not (= x04 x24)))
(assert (not (= x04 x25)))
(assert (not (= (_ bv6 8) x13)))
(assert (not (= (_ bv6 8) (_ bv5 8))))
(assert (not (= (_ bv6 8) (_ bv9 8))))
(assert (not (= (_ bv6 8) (_ bv2 8))))
(assert (not (= (_ bv6 8) x24)))
(assert (not (= (_ bv6 8) x25)))
(assert (not (= x13 (_ bv5 8))))
(assert (not (= x13 (_ bv9 8))))
(assert (not (= x13 (_ bv2 8))))
(assert (not (= x13 x24)))
(assert (not (= x13 x25)))
(assert (not (= (_ bv5 8) (_ bv9 8))))
(assert (not (= (_ bv5 8) (_ bv2 8))))
(assert (not (= (_ bv5 8) x24)))
(assert (not (= (_ bv5 8) x25)))
(assert (not (= (_ bv9 8) (_ bv2 8))))
(assert (not (= (_ bv9 8) x24)))
(assert (not (= (_ bv9 8) x25)))
(assert (not (= (_ bv2 8) x24)))
(assert (not (= (_ bv2 8) x25)))
(assert (not (= x24 x25)))
(assert (not (= (_ bv2 8) (_ bv4 8))))
(assert (not (= (_ bv2 8) x08)))
(assert (not (= (_ bv2 8) x16)))
(assert (not (= (_ bv2 8) (_ bv3 8))))
(assert (not (= (_ bv2 8) x18)))
(assert (not (= (_ bv2 8) x26)))
(assert (not (= (_ bv2 8) (_ bv1 8))))
(assert (not (= (_ bv2 8) (_ bv8 8))))
(assert (not (= (_ bv4 8) x08)))
(assert (not (= (_ bv4 8) x16)))
(assert (not (= (_ bv4 8) (_ bv3 8))))
(assert (not (= (_ bv4 8) x18)))
(assert (not (= (_ bv4 8) x26)))
(assert (not (= (_ bv4 8) (_ bv1 8))))
(assert (not (= (_ bv4 8) (_ bv8 8))))
(assert (not (= x08 x16)))
(assert (not (= x08 (_ bv3 8))))
(assert (not (= x08 x18)))
(assert (not (= x08 x26)))
(assert (not (= x08 (_ bv1 8))))
(assert (not (= x08 (_ bv8 8))))
(assert (not (= x16 (_ bv3 8))))
(assert (not (= x16 x18)))
(assert (not (= x16 x26)))
(assert (not (= x16 (_ bv1 8))))
(assert (not (= x16 (_ bv8 8))))
(assert (not (= (_ bv3 8) x18)))
(assert (not (= (_ bv3 8) x26)))
(assert (not (= (_ bv3 8) (_ bv1 8))))
(assert (not (= (_ bv3 8) (_ bv8 8))))
(assert (not (= x18 x26)))
(assert (not (= x18 (_ bv1 8))))
(assert (not (= x18 (_ bv8 8))))
(assert (not (= x26 (_ bv1 8))))
(assert (not (= x26 (_ bv8 8))))
(assert (not (= (_ bv1 8) (_ bv8 8))))
(assert (not (= (_ bv6 8) (_ bv1 8))))
(assert (not (= (_ bv6 8) x32)))
(assert (not (= (_ bv6 8) (_ bv9 8))))
(assert (not (= (_ bv6 8) x41)))
(assert (not (= (_ bv6 8) (_ bv5 8))))
(assert (not (= (_ bv6 8) (_ bv3 8))))
(assert (not (= (_ bv6 8) (_ bv8 8))))
(assert (not (= (_ bv6 8) x52)))
(assert (not (= (_ bv1 8) x32)))
(assert (not (= (_ bv1 8) (_ bv9 8))))
(assert (not (= (_ bv1 8) x41)))
(assert (not (= (_ bv1 8) (_ bv5 8))))
(assert (not (= (_ bv1 8) (_ bv3 8))))
(assert (not (= (_ bv1 8) (_ bv8 8))))
(assert (not (= (_ bv1 8) x52)))
(assert (not (= x32 (_ bv9 8))))
(assert (not (= x32 x41)))
(assert (not (= x32 (_ bv5 8))))
(assert (not (= x32 (_ bv3 8))))
(assert (not (= x32 (_ bv8 8))))
(assert (not (= x32 x52)))
(assert (not (= (_ bv9 8) x41)))
(assert (not (= (_ bv9 8) (_ bv5 8))))
(assert (not (= (_ bv9 8) (_ bv3 8))))
(assert (not (= (_ bv9 8) (_ bv8 8))))
(assert (not (= (_ bv9 8) x52)))
(assert (not (= x41 (_ bv5 8))))
(assert (not (= x41 (_ bv3 8))))
(assert (not (= x41 (_ bv8 8))))
(assert (not (= x41 x52)))
(assert (not (= (_ bv5 8) (_ bv3 8))))
(assert (not (= (_ bv5 8) (_ bv8 8))))
(assert (not (= (_ bv5 8) x52)))
(assert (not (= (_ bv3 8) (_ bv8 8))))
(assert (not (= (_ bv3 8) x52)))
(assert (not (= (_ bv8 8) x52)))
(assert (not (= x33 (_ bv3 8))))
(assert (not (= x33 x35)))
(assert (not (= x33 (_ bv6 8))))
(assert (not (= x33 (_ bv2 8))))
(assert (not (= x33 x45)))
(assert (not (= x33 x53)))
(assert (not (= x33 x54)))
(assert (not (= x33 (_ bv4 8))))
(assert (not (= (_ bv3 8) x35)))
(assert (not (= (_ bv3 8) (_ bv6 8))))
(assert (not (= (_ bv3 8) (_ bv2 8))))
(assert (not (= (_ bv3 8) x45)))
(assert (not (= (_ bv3 8) x53)))
(assert (not (= (_ bv3 8) x54)))
(assert (not (= (_ bv3 8) (_ bv4 8))))
(assert (not (= x35 (_ bv6 8))))
(assert (not (= x35 (_ bv2 8))))
(assert (not (= x35 x45)))
(assert (not (= x35 x53)))
(assert (not (= x35 x54)))
(assert (not (= x35 (_ bv4 8))))
(assert (not (= (_ bv6 8) (_ bv2 8))))
(assert (not (= (_ bv6 8) x45)))
(assert (not (= (_ bv6 8) x53)))
(assert (not (= (_ bv6 8) x54)))
(assert (not (= (_ bv6 8) (_ bv4 8))))
(assert (not (= (_ bv2 8) x45)))
(assert (not (= (_ bv2 8) x53)))
(assert (not (= (_ bv2 8) x54)))
(assert (not (= (_ bv2 8) (_ bv4 8))))
(assert (not (= x45 x53)))
(assert (not (= x45 x54)))
(assert (not (= x45 (_ bv4 8))))
(assert (not (= x53 x54)))
(assert (not (= x53 (_ bv4 8))))
(assert (not (= x54 (_ bv4 8))))
(assert (not (= (_ bv7 8) x37)))
(assert (not (= (_ bv7 8) x38)))
(assert (not (= (_ bv7 8) x46)))
(assert (not (= (_ bv7 8) x47)))
(assert (not (= (_ bv7 8) x48)))
(assert (not (= (_ bv7 8) (_ bv1 8))))
(assert (not (= (_ bv7 8) (_ bv5 8))))
(assert (not (= (_ bv7 8) x58)))
(assert (not (= x37 x38)))
(assert (not (= x37 x46)))
(assert (not (= x37 x47)))
(assert (not (= x37 x48)))
(assert (not (= x37 (_ bv1 8))))
(assert (not (= x37 (_ bv5 8))))
(assert (not (= x37 x58)))
(assert (not (= x38 x46)))
(assert (not (= x38 x47)))
(assert (not (= x38 x48)))
(assert (not (= x38 (_ bv1 8))))
(assert (not (= x38 (_ bv5 8))))
(assert (not (= x38 x58)))
(assert (not (= x46 x47)))
(assert (not (= x46 x48)))
(assert (not (= x46 (_ bv1 8))))
(assert (not (= x46 (_ bv5 8))))
(assert (not (= x46 x58)))
(assert (not (= x47 x48)))
(assert (not (= x47 (_ bv1 8))))
(assert (not (= x47 (_ bv5 8))))
(assert (not (= x47 x58)))
(assert (not (= x48 (_ bv1 8))))
(assert (not (= x48 (_ bv5 8))))
(assert (not (= x48 x58)))
(assert (not (= (_ bv1 8) (_ bv5 8))))
(assert (not (= (_ bv1 8) x58)))
(assert (not (= (_ bv5 8) x58)))
(assert (not (= x60 x61)))
(assert (not (= x60 (_ bv9 8))))
(assert (not (= x60 x70)))
(assert (not (= x60 x71)))
(assert (not (= x60 x72)))
(assert (not (= x60 x80)))
(assert (not (= x60 (_ bv3 8))))
(assert (not (= x60 (_ bv7 8))))
(assert (not (= x61 (_ bv9 8))))
(assert (not (= x61 x70)))
(assert (not (= x61 x71)))
(assert (not (= x61 x72)))
(assert (not (= x61 x80)))
(assert (not (= x61 (_ bv3 8))))
(assert (not (= x61 (_ bv7 8))))
(assert (not (= (_ bv9 8) x70)))
(assert (not (= (_ bv9 8) x71)))
(assert (not (= (_ bv9 8) x72)))
(assert (not (= (_ bv9 8) x80)))
(assert (not (= (_ bv9 8) (_ bv3 8))))
(assert (not (= (_ bv9 8) (_ bv7 8))))
(assert (not (= x70 x71)))
(assert (not (= x70 x72)))
(assert (not (= x70 x80)))
(assert (not (= x70 (_ bv3 8))))
(assert (not (= x70 (_ bv7 8))))
(assert (not (= x71 x72)))
(assert (not (= x71 x80)))
(assert (not (= x71 (_ bv3 8))))
(assert (not (= x71 (_ bv7 8))))
(assert (not (= x72 x80)))
(assert (not (= x72 (_ bv3 8))))
(assert (not (= x72 (_ bv7 8))))
(assert (not (= x80 (_ bv3 8))))
(assert (not (= x80 (_ bv7 8))))
(assert (not (= (_ bv3 8) (_ bv7 8))))
(assert (not (= x63 x64)))
(assert (not (= x63 (_ bv8 8))))
(assert (not (= x63 x73)))
(assert (not (= x63 x74)))
(assert (not (= x63 x75)))
(assert (not (= x63 x83)))
(assert (not (= x63 x84)))
(assert (not (= x63 x85)))
(assert (not (= x64 (_ bv8 8))))
(assert (not (= x64 x73)))
(assert (not (= x64 x74)))
(assert (not (= x64 x75)))
(assert (not (= x64 x83)))
(assert (not (= x64 x84)))
(assert (not (= x64 x85)))
(assert (not (= (_ bv8 8) x73)))
(assert (not (= (_ bv8 8) x74)))
(assert (not (= (_ bv8 8) x75)))
(assert (not (= (_ bv8 8) x83)))
(assert (not (= (_ bv8 8) x84)))
(assert (not (= (_ bv8 8) x85)))
(assert (not (= x73 x74)))
(assert (not (= x73 x75)))
(assert (not (= x73 x83)))
(assert (not (= x73 x84)))
(assert (not (= x73 x85)))
(assert (not (= x74 x75)))
(assert (not (= x74 x83)))
(assert (not (= x74 x84)))
(assert (not (= x74 x85)))
(assert (not (= x75 x83)))
(assert (not (= x75 x84)))
(assert (not (= x75 x85)))
(assert (not (= x83 x84)))
(assert (not (= x83 x85)))
(assert (not (= x84 x85)))
(assert (not (= x66 x67)))
(assert (not (= x66 (_ bv4 8))))
(assert (not (= x66 (_ bv5 8))))
(assert (not (= x66 (_ bv2 8))))
(assert (not (= x66 (_ bv9 8))))
(assert (not (= x66 x86)))
(assert (not (= x66 x87)))
(assert (not (= x66 x88)))
(assert (not (= x67 (_ bv4 8))))
(assert (not (= x67 (_ bv5 8))))
(assert (not (= x67 (_ bv2 8))))
(assert (not (= x67 (_ bv9 8))))
(assert (not (= x67 x86)))
(assert (not (= x67 x87)))
(assert (not (= x67 x88)))
(assert (not (= (_ bv4 8) (_ bv5 8))))
(assert (not (= (_ bv4 8) (_ bv2 8))))
(assert (not (= (_ bv4 8) (_ bv9 8))))
(assert (not (= (_ bv4 8) x86)))
(assert (not (= (_ bv4 8) x87)))
(assert (not (= (_ bv4 8) x88)))
(assert (not (= (_ bv5 8) (_ bv2 8))))
(assert (not (= (_ bv5 8) (_ bv9 8))))
(assert (not (= (_ bv5 8) x86)))
(assert (not (= (_ bv5 8) x87)))
(assert (not (= (_ bv5 8) x88)))
(assert (not (= (_ bv2 8) (_ bv9 8))))
(assert (not (= (_ bv2 8) x86)))
(assert (not (= (_ bv2 8) x87)))
(assert (not (= (_ bv2 8) x88)))
(assert (not (= (_ bv9 8) x86)))
(assert (not (= (_ bv9 8) x87)))
(assert (not (= (_ bv9 8) x88)))
(assert (not (= x86 x87)))
(assert (not (= x86 x88)))
(assert (not (= x87 x88)))
(check-sat)
(exit)
